%mem=64gb
%nprocshared=28
%chk=s203-azi_snap_34_ckpt_optimized_out_ckpt_optimized_out.chk
# p opt wb97xd/6-31+g(d,p) pop=min scf=(xqc, tight) 

Complex s203-azi_snap_34_ckpt_optimized_out_ckpt

1 1
  N       -2.7271820       -4.5504920       -1.7475400
  H       -3.5250540       -4.9598040       -2.2245560
  C       -3.0501140       -3.5279250       -0.7825030
  H       -2.5611610       -3.7627430        0.1684660
  C       -2.5874860       -2.1248040       -1.2350890
  C       -4.5683510       -3.5251200       -0.5845270
  H       -1.5894930       -2.2085910       -1.6856830
  H       -3.2675620       -1.7328570       -2.0008610
  O       -2.5547650       -1.2791890       -0.1045160
  O       -5.3058260       -4.1975050       -1.2893700
  H       -2.9513860       -0.4048730       -0.3352820
  N       -4.9703640       -2.6800970        0.3970590
  H       -4.2298120       -2.0927020        0.7693000
  C       -6.3147580       -2.1202370        0.4596810
  H       -6.9432130       -2.6679610       -0.2455380
  C       -6.8877760       -2.2610500        1.8739860
  C       -6.2133840       -0.6712700       -0.0539300
  H       -7.8680900       -1.7788740        1.9222370
  H       -7.0165800       -3.3253850        2.0952950
  O       -6.0715810       -1.6356130        2.8568060
  O       -6.5486720       -0.3469790       -1.1831540
  H       -5.3971960       -2.2469050        3.1806950
  N       -5.6161210        0.1900980        0.8117550
  H       -5.5222240       -0.1129710        1.7773200
  C       -5.3979060        1.5747800        0.4729170
  H       -6.3627710        2.0438220        0.2450950
  C       -4.7553360        2.3017280        1.6857940
  C       -4.5089200        1.7068560       -0.7640820
  H       -5.4461310        2.1165700        2.5206920
  C       -3.3850200        1.7231310        2.0619410
  C       -4.6727420        3.8237930        1.4943610
  O       -3.5311310        0.9723960       -0.9740890
  H       -3.4250770        0.6410720        2.2216290
  H       -2.6382520        1.9058190        1.2835000
  H       -3.0299410        2.1841400        2.9880960
  H       -4.1551990        4.2326640        2.3695390
  H       -4.0323770        4.0523520        0.6344030
  C       -6.0166270        4.5371830        1.3463910
  H       -5.8759300        5.6207320        1.3256430
  H       -6.5466320        4.2683230        0.4260390
  H       -6.6819770        4.3017580        2.1833480
  N       -4.7747030        2.7443360       -1.5669220
  H       -5.5792530        3.3210110       -1.3703290
  C       -3.9376320        3.1065420       -2.7073170
  H       -3.4977830        2.1718050       -3.0692390
  C       -4.7823440        3.7052080       -3.8450610
  C       -2.7847920        3.9997900       -2.1985780
  H       -5.4783380        2.9021150       -4.1213590
  C       -5.6126040        4.9333880       -3.4517770
  C       -3.8996390        4.0020890       -5.0610380
  O       -2.7537350        5.2157830       -2.3352070
  H       -4.9703130        5.7622550       -3.1495250
  H       -6.2143760        5.2515000       -4.3077660
  H       -6.3225050        4.7278190       -2.6410250
  H       -3.2223110        4.8362430       -4.8591730
  H       -3.3029120        3.1285920       -5.3457550
  H       -4.5219550        4.2713290       -5.9186200
  N       -1.8010060        3.3198610       -1.5493780
  H       -1.9180860        2.3319620       -1.3429740
  C       -0.7060180        4.0282820       -0.9187850
  H       -0.3866670        4.8324060       -1.5898220
  C       -1.1806240        4.6428440        0.4110710
  C        0.4254400        3.0356140       -0.6617290
  H       -2.0730810        5.2439520        0.2147400
  H       -1.4355790        3.8366910        1.1035330
  O       -0.1733980        5.4165070        1.0421590
  O        0.1827650        1.9366170       -0.1574590
  H       -0.1549760        6.3035780        0.6720400
  N        1.6603880        3.4389100       -1.0045970
  H        1.8368820        4.3814730       -1.3371540
  C        2.8481010        2.6970250       -0.6397530
  H        2.7891630        2.4700160        0.4320780
  C        2.9728800        1.3812730       -1.4394770
  C        4.0409660        3.6441040       -0.8308920
  H        1.9788990        0.9268970       -1.4308810
  H        3.2122780        1.6130230       -2.4820540
  C        3.9858500        0.4101230       -0.8751740
  O        3.8845920        4.7669970       -1.2874520
  C        3.9966860        0.0820910        0.4878450
  C        4.9618090       -0.1583660       -1.6982970
  H        3.2656690        0.5267450        1.1578950
  C        4.9639810       -0.7721810        1.0124650
  C        5.9312620       -1.0135470       -1.1776830
  H        4.9710160        0.0814310       -2.7581150
  H        4.9666020       -0.9961070        2.0752040
  C        5.9401930       -1.3187900        0.1815090
  H        6.6873040       -1.4316680       -1.8349150
  H        6.7040390       -1.9708610        0.5925220
  N        5.2531610        3.1472670       -0.4474370
  H        5.2210430        2.2543050        0.0291560
  C        6.3014660        4.0449610        0.0258790
  H        6.0238440        5.0463850       -0.3169000
  C        6.3708430        4.0254700        1.5751630
  C        7.6749700        3.7512940       -0.5804840
  H        6.8866070        3.1146250        1.8998010
  H        6.9914340        4.8657460        1.8948710
  C        4.9816700        4.0730350        2.1630330
  O        8.6778640        4.2640660       -0.1130820
  C        4.1661920        5.1904080        1.9642560
  C        4.4136590        2.9557020        2.7792380
  H        4.5775740        6.0801390        1.4954620
  C        2.8218980        5.1747780        2.3080460
  C        3.0664390        2.9242890        3.1357830
  H        5.0300570        2.0784710        2.9638230
  H        2.2046450        6.0489080        2.1297540
  C        2.2535710        4.0258150        2.8668020
  H        2.6288410        2.0488500        3.6053730
  O        0.9327500        3.9492510        3.1654750
  H        0.4645040        4.6330770        2.6593930
  C       -1.4926160       -5.0467180       -1.8897860
  O       -0.5298890       -4.5989410       -1.2330960
  C       -1.2936460       -6.1617370       -2.8788830
  H       -0.7956650       -6.9930680       -2.3744750
  H       -2.2264790       -6.5122600       -3.3231030
  H       -0.6299830       -5.8121230       -3.6742890
  N        7.6917250        2.9068900       -1.6427680
  H        8.5656930        2.7725160       -2.1266580
  H        6.8328810        2.5761840       -2.0509910
  C        3.4384960       -7.1207040       -0.8640690
  C        4.8411470       -7.1150640       -0.9420530
  C        5.5318940       -5.9141560       -0.9645920
  C        4.8319260       -4.7061180       -0.9122220
  C        3.4448400       -4.7011670       -0.8275150
  C        2.7527530       -5.9196570       -0.8006740
  H        6.6165800       -5.9149770       -1.0305280
  H        5.3759770       -3.7688480       -0.9461980
  H        1.6666880       -5.9564980       -0.7471700
  O        2.7513620       -8.2867660       -0.8480430
  H        3.3751660       -9.0216840       -0.9043730
  O        5.4149050       -8.3513980       -0.9923170
  H        6.3711210       -8.2941050       -1.0716920
  C        2.6636650       -3.4037330       -0.8019920
  H        3.3581470       -2.5621400       -0.8728670
  C        1.8773610       -3.2914360        0.5332700
  H        2.4808030       -2.7859740        1.2913940
  H        1.6038450       -4.2814340        0.9044350
  O        1.8028860       -3.2618640       -1.9177850
  H        1.2163820       -4.0317440       -1.9794350
  N        0.5946000       -2.5492720        0.3684100
  C        0.7596730       -1.1209270       -0.0172930
  H        1.2913620       -1.0946880       -0.9660080
  H       -0.2267820       -0.6685330       -0.1153280
  H        1.3281230       -0.5963950        0.7470200
  C       -0.3439390       -2.7356840        1.5187640
  C        0.1217240       -2.1996580        2.8687940
  H       -0.5527440       -3.8067820        1.5624040
  H       -1.2538690       -2.2181170        1.2126390
  C       -1.1056690       -1.9081370        3.7538070
  H        0.7993200       -2.9049890        3.3617550
  H        0.6688640       -1.2594490        2.7470260
  C       -1.9990500       -3.1076590        4.0000410
  H       -0.7705270       -1.5232230        4.7222450
  H       -1.6932000       -1.1125030        3.2815080
  C       -1.6074410       -4.0890050        5.0710960
  H       -0.5955150       -4.4675840        4.8921650
  H       -1.6170500       -3.6057300        6.0530880
  H       -2.2892060       -4.9412500        5.0991930
  H        0.1194270       -3.0306220       -0.4150430
  N       -3.4314570       -2.9602210        3.6817360
  N       -2.7936300       -3.6155140        2.8629450

